4 
5  04 24 45 58 
6  15 31 47 
7  02 17 32 47 
8  02 17 32 47 
9  02 17 33 48 
10  03 18 33 47 
11  02 17 32 47 
12  02 17 32 47 
13  02 17 32 47 
14  02 17 32 47 
15  02 17 32 47 
16  02 17 32 47 
17  02 17 32 47 
18  02 17 32 47 
19  02 17 32 47 
20  02 17 35 50 
21  05 19 35 50 
22  05 20 35 50 
23  04 22 
0 
